32      4       
10      10      10      10      
0       0       0       0       0       1       2       
7       1       1       1       0       3       3       5       7       
5       0       2       3       1       1       4       
9       4       3       5       0       2       6       9       
8       3       3       3       0       1       6       
2       3       4       0       3       2       8       13      
7       0       4       8       3       2       8       13      
5       0       5       6       5       2       10      11      
4       6       0       7       7       2       12      13      
6       2       0       4       3       1       12      
4       2       4       2       0       1       12      
1       4       3       4       0       3       14      16      18      
4       3       7       0       2       3       14      16      18      
4       2       4       0       5       1       15      
10      4       3       0       5       2       17      19      
4       7       8       7       0       2       17      19      
2       3       0       3       5       3       20      21      22      
2       4       5       2       0       3       20      21      22      
2       0       4       7       3       3       22      23      24      
6       5       4       5       0       3       23      24      26      
10      0       5       4       4       2       23      26      
3       5       0       2       7       3       26      27      29      
10      3       4       1       0       2       25      28      
10      5       2       3       0       2       25      28      
8       5       5       4       0       2       27      29      
6       4       0       5       6       2       28      31      
1       2       0       5       3       2       30      31      
8       3       0       1       3       1       30      
8       7       2       0       4       1       30      
2       0       7       4       3       1       32      
5       9       3       4       0       1       32      
0       0       0       0       0       0       
